BEGIN IONS
FORMULA=H2
MW=2
CASNO=1333740
ID=1
NUM_PEAKS=2
COMPOUND_NAME=Hydrogen
1.0 20.98 
2.0 999.0 
END IONS

BEGIN IONS
FORMULA=D2
MW=4
CASNO=7782390
ID=2
NUM_PEAKS=2
COMPOUND_NAME=Deuterium
2.0 14.99 
4.0 999.0 
END IONS

BEGIN IONS
FORMULA=CH4
MW=16
CASNO=74828
ID=3
NUM_PEAKS=6
COMPOUND_NAME=Methane
12.0 37.97 
13.0 105.9 
14.0 203.82 
15.0 886.2 
16.0 999.0 
17.0 15.99 
END IONS

